data;
set K:= K1 K2 K3 K4 K5 K6 K7 K8 K9 K10 ;

set F:= F1 F2 F3 ;

set Q:= Q1 Q2 ;

param T:= 45;
param V: 
	K1  K2  K3  K4  K5  K6  K7  K8  K9  K10 :=
Q1	1   1   1   1   1   1   0   0   0   0   
Q2	0   0   0   0   0   0   1   1   1   1   
; # if resorce k is of type q

param TF:= 
K1 6
K2 6
K3 6
K4 6
K5 6
K6 6
K7 12
K8 12
K9 12
K10 12
; # number of continuous time slots resource can fly

param TR:= 
K1 2
K2 2
K3 2
K4 2
K5 2
K6 2
K7 4
K8 4
K9 4
K10 4
; #  number of continuous time slots resource k needs to rest between flights

param P:= 
K1 36
K2 36
K3 36
K4 36
K5 36
K6 36
K7 36
K8 36
K9 36
K10 36
; #  number of continuous time slots a pilot can be present including rest times for resource k 

param N:= 
K1 4
K2 4
K3 4
K4 4
K5 4
K6 4
K7 2
K8 2
K9 2
K10 1
; # max number of flights resource k can fly in the total time period

param A: 
	K1  K2  K3  K4  K5  K6  K7  K8  K9  K10 :=
1	1   1   1   1   1   1   1   1   1   1   
2	1   1   1   1   1   1   1   1   1   1   
3	1   1   1   1   1   1   1   1   1   1   
4	1   1   1   1   1   1   1   1   1   1   
5	1   1   1   1   1   1   1   1   1   1   
6	1   1   1   1   1   1   1   1   1   1   
7	1   1   1   1   1   1   1   1   1   1   
8	1   1   1   1   1   1   1   1   1   1   
9	1   1   1   1   1   1   1   1   1   1   
10	1   1   1   1   1   1   1   1   1   1   
11	1   1   1   1   1   1   1   1   1   1   
12	1   1   1   1   1   1   1   1   1   1   
13	1   1   1   1   1   1   1   1   1   1   
14	1   1   1   1   1   1   1   1   1   1   
15	1   1   1   1   1   1   1   1   1   1   
16	1   1   1   1   1   1   1   1   1   1   
17	1   1   1   1   1   1   1   1   1   1   
18	1   1   1   1   1   1   1   1   1   1   
19	1   1   1   1   1   1   1   1   1   1   
20	1   1   1   1   1   1   1   1   1   1   
21	1   1   1   1   1   1   1   1   1   1   
22	1   1   1   1   1   1   1   1   1   1   
23	1   1   1   1   1   1   1   1   1   1   
24	1   1   1   1   1   1   1   1   1   1   
25	1   1   1   1   1   1   1   1   1   1   
26	1   1   1   1   1   1   1   1   1   1   
27	1   1   1   1   1   1   1   1   1   1   
28	1   1   1   1   1   1   1   1   1   1   
29	1   1   1   1   1   1   1   1   1   1   
30	1   1   1   1   1   1   1   1   1   1   
31	1   1   1   1   1   1   1   1   1   1   
32	1   1   1   1   1   1   1   1   1   1   
33	1   1   1   1   1   1   1   1   1   1   
34	1   1   1   1   1   1   1   1   1   1   
35	1   1   1   1   1   1   1   1   1   1   
36	1   1   1   1   1   1   1   1   1   1   
37	1   1   1   1   1   1   1   1   1   1   
38	1   1   1   1   1   1   1   1   1   0   
39	1   1   1   1   1   1   1   1   1   0   
40	1   1   1   1   1   1   1   1   1   0   
41	1   1   1   1   1   1   1   1   1   0   
42	1   1   1   1   1   1   1   1   1   0   
43	1   1   1   1   1   1   1   1   1   0   
44	1   1   1   1   1   1   1   1   1   0   
45	1   1   1   1   1   1   1   1   1   0   
; # availability of resorce k in time slot t

param B: 
	F1  F2  F3  :=
Q1	0   0   0   
Q2	0   0   0   
; # if front f requires resources of type q

param U: 
	F1  F2  F3  :=
K1	0   0   0   
K2	0   0   0   
K3	0   0   0   
K4	0   0   0   
K5	0   0   0   
K6	0   0   0   
K7	1   1   1   
K8	2   2   2   
K9	0   0   0   
K10	1   1   1   
; # transit time of resource

param C:= 
K1 900
K2 900
K3 900
K4 1500
K5 4500
K6 2100
K7 5500
K8 5500
K9 5500
K10 5500
; #  water capacity of resource k

param S:= 
F1 9
F2 10
F3 10
; # max number of resources that can fly at front f in the same time slot

param D:= 

[*,*,F1 ]:  K1    K2    K3    K4    K5    K6    K7    K8    K9    K10   :=
1           1.49  1.49  1.49  1.49  1.18  1.49  0.89  0.89  0.89  0.89  
2           1.49  1.49  1.49  1.49  1.18  1.49  0.89  0.89  0.89  0.89  
3           1.49  1.49  1.49  1.49  1.18  1.49  0.89  0.89  0.89  0.89  
4           1.49  1.49  1.49  1.49  1.18  1.49  0.89  0.89  0.89  0.89  
5           1.49  1.49  1.49  1.49  1.18  1.49  0.89  0.89  0.89  0.89  
6           1.49  1.49  1.49  1.49  1.18  1.49  0.89  0.89  0.89  0.89  
7           1.49  1.49  1.49  1.49  1.18  1.49  0.89  0.89  0.89  0.89  
8           1.49  1.49  1.49  1.49  1.18  1.49  0.89  0.89  0.89  0.89  
9           1.49  1.49  1.49  1.49  1.18  1.49  0.89  0.89  0.89  0.89  
10          1.49  1.49  1.49  1.49  1.18  1.49  0.89  0.89  0.89  0.89  
11          1.49  1.49  1.49  1.49  1.18  1.49  0.89  0.89  0.89  0.89  
12          1.49  1.49  1.49  1.49  1.18  1.49  0.89  0.89  0.89  0.89  
13          1.49  1.49  1.49  1.49  1.18  1.49  0.89  0.89  0.89  0.89  
14          1.49  1.49  1.49  1.49  1.18  1.49  0.89  0.89  0.89  0.89  
15          1.49  1.49  1.49  1.49  1.18  1.49  0.89  0.89  0.89  0.89  
16          1.49  1.49  1.49  1.49  1.18  1.49  0.89  0.89  0.89  0.89  
17          1.49  1.49  1.49  1.49  1.18  1.49  0.89  0.89  0.89  0.89  
18          1.49  1.49  1.49  1.49  1.18  1.49  0.89  0.89  0.89  0.89  
19          1.49  1.49  1.49  1.49  1.18  1.49  0.89  0.89  0.89  0.89  
20          1.49  1.49  1.49  1.49  1.18  1.49  0.89  0.89  0.89  0.89  
21          1.49  1.49  1.49  1.49  1.18  1.49  0.89  0.89  0.89  0.89  
22          1.49  1.49  1.49  1.49  1.18  1.49  0.89  0.89  0.89  0.89  
23          1.49  1.49  1.49  1.49  1.18  1.49  0.89  0.89  0.89  0.89  
24          1.49  1.49  1.49  1.49  1.18  1.49  0.89  0.89  0.89  0.89  
25          1.41  1.41  1.41  1.41  1.12  1.41  0.85  0.85  0.85  0.85  
26          1.41  1.41  1.41  1.41  1.12  1.41  0.85  0.85  0.85  0.85  
27          1.41  1.41  1.41  1.41  1.12  1.41  0.85  0.85  0.85  0.85  
28          1.41  1.41  1.41  1.41  1.12  1.41  0.85  0.85  0.85  0.85  
29          1.41  1.41  1.41  1.41  1.12  1.41  0.85  0.85  0.85  0.85  
30          1.41  1.41  1.41  1.41  1.12  1.41  0.85  0.85  0.85  0.85  
31          1.41  1.41  1.41  1.41  1.12  1.41  0.85  0.85  0.85  0.85  
32          1.41  1.41  1.41  1.41  1.12  1.41  0.85  0.85  0.85  0.85  
33          1.41  1.41  1.41  1.41  1.12  1.41  0.85  0.85  0.85  0.85  
34          1.49  1.49  1.49  1.49  1.18  1.49  0.89  0.89  0.89  0.89  
35          1.49  1.49  1.49  1.49  1.18  1.49  0.89  0.89  0.89  0.89  
36          1.49  1.49  1.49  1.49  1.18  1.49  0.89  0.89  0.89  0.89  
37          1.49  1.49  1.49  1.49  1.18  1.49  0.89  0.89  0.89  0.89  
38          1.49  1.49  1.49  1.49  1.18  1.49  0.89  0.89  0.89  0.89  
39          1.49  1.49  1.49  1.49  1.18  1.49  0.89  0.89  0.89  0.89  
40          1.49  1.49  1.49  1.49  1.18  1.49  0.89  0.89  0.89  0.89  
41          1.49  1.49  1.49  1.49  1.18  1.49  0.89  0.89  0.89  0.89  
42          1.49  1.49  1.49  1.49  1.18  1.49  0.89  0.89  0.89  0.89  
43          1.49  1.49  1.49  1.49  1.18  1.49  0.89  0.89  0.89  0.89  
44          1.49  1.49  1.49  1.49  1.18  1.49  0.89  0.89  0.89  0.89  
45          1.49  1.49  1.49  1.49  1.18  1.49  0.89  0.89  0.89  0.89  

[*,*,F2 ]:  K1    K2    K3    K4    K5    K6    K7    K8    K9    K10   :=
1           1.50  1.50  1.50  1.50  1.20  1.50  0.90  0.90  0.90  0.90  
2           1.50  1.50  1.50  1.50  1.20  1.50  0.90  0.90  0.90  0.90  
3           1.50  1.50  1.50  1.50  1.20  1.50  0.90  0.90  0.90  0.90  
4           1.50  1.50  1.50  1.50  1.20  1.50  0.90  0.90  0.90  0.90  
5           1.50  1.50  1.50  1.50  1.20  1.50  0.90  0.90  0.90  0.90  
6           1.50  1.50  1.50  1.50  1.20  1.50  0.90  0.90  0.90  0.90  
7           1.50  1.50  1.50  1.50  1.20  1.50  0.90  0.90  0.90  0.90  
8           1.50  1.50  1.50  1.50  1.20  1.50  0.90  0.90  0.90  0.90  
9           1.50  1.50  1.50  1.50  1.20  1.50  0.90  0.90  0.90  0.90  
10          1.50  1.50  1.50  1.50  1.20  1.50  0.90  0.90  0.90  0.90  
11          1.50  1.50  1.50  1.50  1.20  1.50  0.90  0.90  0.90  0.90  
12          1.50  1.50  1.50  1.50  1.20  1.50  0.90  0.90  0.90  0.90  
13          1.50  1.50  1.50  1.50  1.20  1.50  0.90  0.90  0.90  0.90  
14          1.50  1.50  1.50  1.50  1.20  1.50  0.90  0.90  0.90  0.90  
15          1.50  1.50  1.50  1.50  1.20  1.50  0.90  0.90  0.90  0.90  
16          1.50  1.50  1.50  1.50  1.20  1.50  0.90  0.90  0.90  0.90  
17          1.50  1.50  1.50  1.50  1.20  1.50  0.90  0.90  0.90  0.90  
18          1.50  1.50  1.50  1.50  1.20  1.50  0.90  0.90  0.90  0.90  
19          1.50  1.50  1.50  1.50  1.20  1.50  0.90  0.90  0.90  0.90  
20          1.50  1.50  1.50  1.50  1.20  1.50  0.90  0.90  0.90  0.90  
21          1.50  1.50  1.50  1.50  1.20  1.50  0.90  0.90  0.90  0.90  
22          1.50  1.50  1.50  1.50  1.20  1.50  0.90  0.90  0.90  0.90  
23          1.50  1.50  1.50  1.50  1.20  1.50  0.90  0.90  0.90  0.90  
24          1.50  1.50  1.50  1.50  1.20  1.50  0.90  0.90  0.90  0.90  
25          1.43  1.43  1.43  1.43  1.14  1.43  0.85  0.85  0.85  0.85  
26          1.43  1.43  1.43  1.43  1.14  1.43  0.85  0.85  0.85  0.85  
27          1.43  1.43  1.43  1.43  1.14  1.43  0.85  0.85  0.85  0.85  
28          1.43  1.43  1.43  1.43  1.14  1.43  0.85  0.85  0.85  0.85  
29          1.43  1.43  1.43  1.43  1.14  1.43  0.85  0.85  0.85  0.85  
30          1.43  1.43  1.43  1.43  1.14  1.43  0.85  0.85  0.85  0.85  
31          1.43  1.43  1.43  1.43  1.14  1.43  0.85  0.85  0.85  0.85  
32          1.43  1.43  1.43  1.43  1.14  1.43  0.85  0.85  0.85  0.85  
33          1.43  1.43  1.43  1.43  1.14  1.43  0.85  0.85  0.85  0.85  
34          1.50  1.50  1.50  1.50  1.20  1.50  0.90  0.90  0.90  0.90  
35          1.50  1.50  1.50  1.50  1.20  1.50  0.90  0.90  0.90  0.90  
36          1.50  1.50  1.50  1.50  1.20  1.50  0.90  0.90  0.90  0.90  
37          1.50  1.50  1.50  1.50  1.20  1.50  0.90  0.90  0.90  0.90  
38          1.50  1.50  1.50  1.50  1.20  1.50  0.90  0.90  0.90  0.90  
39          1.50  1.50  1.50  1.50  1.20  1.50  0.90  0.90  0.90  0.90  
40          1.50  1.50  1.50  1.50  1.20  1.50  0.90  0.90  0.90  0.90  
41          1.50  1.50  1.50  1.50  1.20  1.50  0.90  0.90  0.90  0.90  
42          1.50  1.50  1.50  1.50  1.20  1.50  0.90  0.90  0.90  0.90  
43          1.50  1.50  1.50  1.50  1.20  1.50  0.90  0.90  0.90  0.90  
44          1.50  1.50  1.50  1.50  1.20  1.50  0.90  0.90  0.90  0.90  
45          1.50  1.50  1.50  1.50  1.20  1.50  0.90  0.90  0.90  0.90  

[*,*,F3 ]:  K1    K2    K3    K4    K5    K6    K7    K8    K9    K10   :=
1           1.85  1.85  1.85  1.85  1.48  1.85  1.11  1.11  1.11  1.11  
2           1.85  1.85  1.85  1.85  1.48  1.85  1.11  1.11  1.11  1.11  
3           1.85  1.85  1.85  1.85  1.48  1.85  1.11  1.11  1.11  1.11  
4           1.85  1.85  1.85  1.85  1.48  1.85  1.11  1.11  1.11  1.11  
5           1.85  1.85  1.85  1.85  1.48  1.85  1.11  1.11  1.11  1.11  
6           1.85  1.85  1.85  1.85  1.48  1.85  1.11  1.11  1.11  1.11  
7           1.85  1.85  1.85  1.85  1.48  1.85  1.11  1.11  1.11  1.11  
8           1.85  1.85  1.85  1.85  1.48  1.85  1.11  1.11  1.11  1.11  
9           1.85  1.85  1.85  1.85  1.48  1.85  1.11  1.11  1.11  1.11  
10          1.85  1.85  1.85  1.85  1.48  1.85  1.11  1.11  1.11  1.11  
11          1.85  1.85  1.85  1.85  1.48  1.85  1.11  1.11  1.11  1.11  
12          1.85  1.85  1.85  1.85  1.48  1.85  1.11  1.11  1.11  1.11  
13          1.85  1.85  1.85  1.85  1.48  1.85  1.11  1.11  1.11  1.11  
14          1.85  1.85  1.85  1.85  1.48  1.85  1.11  1.11  1.11  1.11  
15          1.85  1.85  1.85  1.85  1.48  1.85  1.11  1.11  1.11  1.11  
16          1.85  1.85  1.85  1.85  1.48  1.85  1.11  1.11  1.11  1.11  
17          1.85  1.85  1.85  1.85  1.48  1.85  1.11  1.11  1.11  1.11  
18          1.85  1.85  1.85  1.85  1.48  1.85  1.11  1.11  1.11  1.11  
19          1.85  1.85  1.85  1.85  1.48  1.85  1.11  1.11  1.11  1.11  
20          1.85  1.85  1.85  1.85  1.48  1.85  1.11  1.11  1.11  1.11  
21          1.85  1.85  1.85  1.85  1.48  1.85  1.11  1.11  1.11  1.11  
22          1.85  1.85  1.85  1.85  1.48  1.85  1.11  1.11  1.11  1.11  
23          1.85  1.85  1.85  1.85  1.48  1.85  1.11  1.11  1.11  1.11  
24          1.85  1.85  1.85  1.85  1.48  1.85  1.11  1.11  1.11  1.11  
25          1.76  1.76  1.76  1.76  1.40  1.76  1.05  1.05  1.05  1.05  
26          1.76  1.76  1.76  1.76  1.40  1.76  1.05  1.05  1.05  1.05  
27          1.76  1.76  1.76  1.76  1.40  1.76  1.05  1.05  1.05  1.05  
28          1.76  1.76  1.76  1.76  1.40  1.76  1.05  1.05  1.05  1.05  
29          1.76  1.76  1.76  1.76  1.40  1.76  1.05  1.05  1.05  1.05  
30          1.76  1.76  1.76  1.76  1.40  1.76  1.05  1.05  1.05  1.05  
31          1.76  1.76  1.76  1.76  1.40  1.76  1.05  1.05  1.05  1.05  
32          1.76  1.76  1.76  1.76  1.40  1.76  1.05  1.05  1.05  1.05  
33          1.76  1.76  1.76  1.76  1.40  1.76  1.05  1.05  1.05  1.05  
34          1.85  1.85  1.85  1.85  1.48  1.85  1.11  1.11  1.11  1.11  
35          1.85  1.85  1.85  1.85  1.48  1.85  1.11  1.11  1.11  1.11  
36          1.85  1.85  1.85  1.85  1.48  1.85  1.11  1.11  1.11  1.11  
37          1.85  1.85  1.85  1.85  1.48  1.85  1.11  1.11  1.11  1.11  
38          1.85  1.85  1.85  1.85  1.48  1.85  1.11  1.11  1.11  1.11  
39          1.85  1.85  1.85  1.85  1.48  1.85  1.11  1.11  1.11  1.11  
40          1.85  1.85  1.85  1.85  1.48  1.85  1.11  1.11  1.11  1.11  
41          1.85  1.85  1.85  1.85  1.48  1.85  1.11  1.11  1.11  1.11  
42          1.85  1.85  1.85  1.85  1.48  1.85  1.11  1.11  1.11  1.11  
43          1.85  1.85  1.85  1.85  1.48  1.85  1.11  1.11  1.11  1.11  
44          1.85  1.85  1.85  1.85  1.48  1.85  1.11  1.11  1.11  1.11  
45          1.85  1.85  1.85  1.85  1.48  1.85  1.11  1.11  1.11  1.11  
; # downloads resource k can do at front f in time t if intermediate time slot

param E:= 

[*,*,F1 ]:  K1    K2    K3    K4    K5    K6    K7    K8    K9    K10   :=
1           0.80  0.40  0.73  0.39  0.51  0.22  0.06  0.21  0.08  0.07  
2           0.80  0.40  0.73  0.39  0.51  0.22  0.06  0.21  0.08  0.07  
3           0.80  0.40  0.73  0.39  0.51  0.22  0.06  0.21  0.08  0.07  
4           0.80  0.40  0.73  0.39  0.51  0.22  0.06  0.21  0.08  0.07  
5           0.80  0.40  0.73  0.39  0.51  0.22  0.06  0.21  0.08  0.07  
6           0.80  0.40  0.73  0.39  0.51  0.22  0.06  0.21  0.08  0.07  
7           0.80  0.40  0.73  0.39  0.51  0.22  0.06  0.21  0.08  0.07  
8           0.80  0.40  0.73  0.39  0.51  0.22  0.06  0.21  0.08  0.07  
9           0.80  0.40  0.73  0.39  0.51  0.22  0.06  0.21  0.08  0.07  
10          0.80  0.40  0.73  0.39  0.51  0.22  0.06  0.21  0.08  0.07  
11          0.80  0.40  0.73  0.39  0.51  0.22  0.06  0.21  0.08  0.07  
12          0.80  0.40  0.73  0.39  0.51  0.22  0.06  0.21  0.08  0.07  
13          0.80  0.40  0.73  0.39  0.51  0.22  0.06  0.21  0.08  0.07  
14          0.80  0.40  0.73  0.39  0.51  0.22  0.06  0.21  0.08  0.07  
15          0.80  0.40  0.73  0.39  0.51  0.22  0.06  0.21  0.08  0.07  
16          0.80  0.40  0.73  0.39  0.51  0.22  0.06  0.21  0.08  0.07  
17          0.80  0.40  0.73  0.39  0.51  0.22  0.06  0.21  0.08  0.07  
18          0.80  0.40  0.73  0.39  0.51  0.22  0.06  0.21  0.08  0.07  
19          0.80  0.40  0.73  0.39  0.51  0.22  0.06  0.21  0.08  0.07  
20          0.80  0.40  0.73  0.39  0.51  0.22  0.06  0.21  0.08  0.07  
21          0.80  0.40  0.73  0.39  0.51  0.22  0.06  0.21  0.08  0.07  
22          0.80  0.40  0.73  0.39  0.51  0.22  0.06  0.21  0.08  0.07  
23          0.80  0.40  0.73  0.39  0.51  0.22  0.06  0.21  0.08  0.07  
24          0.80  0.40  0.73  0.39  0.51  0.22  0.06  0.21  0.08  0.07  
25          0.76  0.38  0.69  0.37  0.48  0.21  0.06  0.20  0.08  0.07  
26          0.76  0.38  0.69  0.37  0.48  0.21  0.06  0.20  0.08  0.07  
27          0.76  0.38  0.69  0.37  0.48  0.21  0.06  0.20  0.08  0.07  
28          0.76  0.38  0.69  0.37  0.48  0.21  0.06  0.20  0.08  0.07  
29          0.76  0.38  0.69  0.37  0.48  0.21  0.06  0.20  0.08  0.07  
30          0.76  0.38  0.69  0.37  0.48  0.21  0.06  0.20  0.08  0.07  
31          0.76  0.38  0.69  0.37  0.48  0.21  0.06  0.20  0.08  0.07  
32          0.76  0.38  0.69  0.37  0.48  0.21  0.06  0.20  0.08  0.07  
33          0.76  0.38  0.69  0.37  0.48  0.21  0.06  0.20  0.08  0.07  
34          0.80  0.40  0.73  0.39  0.51  0.22  0.06  0.21  0.08  0.07  
35          0.80  0.40  0.73  0.39  0.51  0.22  0.06  0.21  0.08  0.07  
36          0.80  0.40  0.73  0.39  0.51  0.22  0.06  0.21  0.08  0.07  
37          0.80  0.40  0.73  0.39  0.51  0.22  0.06  0.21  0.08  0.07  
38          0.80  0.40  0.73  0.39  0.51  0.22  0.06  0.21  0.08  0.07  
39          0.80  0.40  0.73  0.39  0.51  0.22  0.06  0.21  0.08  0.07  
40          0.80  0.40  0.73  0.39  0.51  0.22  0.06  0.21  0.08  0.07  
41          0.80  0.40  0.73  0.39  0.51  0.22  0.06  0.21  0.08  0.07  
42          0.80  0.40  0.73  0.39  0.51  0.22  0.06  0.21  0.08  0.07  
43          0.80  0.40  0.73  0.39  0.51  0.22  0.06  0.21  0.08  0.07  
44          0.80  0.40  0.73  0.39  0.51  0.22  0.06  0.21  0.08  0.07  
45          0.80  0.40  0.73  0.39  0.51  0.22  0.06  0.21  0.08  0.07  

[*,*,F2 ]:  K1    K2    K3    K4    K5    K6    K7    K8    K9    K10   :=
1           0.71  0.47  0.60  0.39  0.44  0.38  0.13  0.25  0.01  0.09  
2           0.71  0.47  0.60  0.39  0.44  0.38  0.13  0.25  0.01  0.09  
3           0.71  0.47  0.60  0.39  0.44  0.38  0.13  0.25  0.01  0.09  
4           0.71  0.47  0.60  0.39  0.44  0.38  0.13  0.25  0.01  0.09  
5           0.71  0.47  0.60  0.39  0.44  0.38  0.13  0.25  0.01  0.09  
6           0.71  0.47  0.60  0.39  0.44  0.38  0.13  0.25  0.01  0.09  
7           0.71  0.47  0.60  0.39  0.44  0.38  0.13  0.25  0.01  0.09  
8           0.71  0.47  0.60  0.39  0.44  0.38  0.13  0.25  0.01  0.09  
9           0.71  0.47  0.60  0.39  0.44  0.38  0.13  0.25  0.01  0.09  
10          0.71  0.47  0.60  0.39  0.44  0.38  0.13  0.25  0.01  0.09  
11          0.71  0.47  0.60  0.39  0.44  0.38  0.13  0.25  0.01  0.09  
12          0.71  0.47  0.60  0.39  0.44  0.38  0.13  0.25  0.01  0.09  
13          0.71  0.47  0.60  0.39  0.44  0.38  0.13  0.25  0.01  0.09  
14          0.71  0.47  0.60  0.39  0.44  0.38  0.13  0.25  0.01  0.09  
15          0.71  0.47  0.60  0.39  0.44  0.38  0.13  0.25  0.01  0.09  
16          0.71  0.47  0.60  0.39  0.44  0.38  0.13  0.25  0.01  0.09  
17          0.71  0.47  0.60  0.39  0.44  0.38  0.13  0.25  0.01  0.09  
18          0.71  0.47  0.60  0.39  0.44  0.38  0.13  0.25  0.01  0.09  
19          0.71  0.47  0.60  0.39  0.44  0.38  0.13  0.25  0.01  0.09  
20          0.71  0.47  0.60  0.39  0.44  0.38  0.13  0.25  0.01  0.09  
21          0.71  0.47  0.60  0.39  0.44  0.38  0.13  0.25  0.01  0.09  
22          0.71  0.47  0.60  0.39  0.44  0.38  0.13  0.25  0.01  0.09  
23          0.71  0.47  0.60  0.39  0.44  0.38  0.13  0.25  0.01  0.09  
24          0.71  0.47  0.60  0.39  0.44  0.38  0.13  0.25  0.01  0.09  
25          0.67  0.44  0.57  0.37  0.42  0.36  0.12  0.24  0.01  0.09  
26          0.67  0.44  0.57  0.37  0.42  0.36  0.12  0.24  0.01  0.09  
27          0.67  0.44  0.57  0.37  0.42  0.36  0.12  0.24  0.01  0.09  
28          0.67  0.44  0.57  0.37  0.42  0.36  0.12  0.24  0.01  0.09  
29          0.67  0.44  0.57  0.37  0.42  0.36  0.12  0.24  0.01  0.09  
30          0.67  0.44  0.57  0.37  0.42  0.36  0.12  0.24  0.01  0.09  
31          0.67  0.44  0.57  0.37  0.42  0.36  0.12  0.24  0.01  0.09  
32          0.67  0.44  0.57  0.37  0.42  0.36  0.12  0.24  0.01  0.09  
33          0.67  0.44  0.57  0.37  0.42  0.36  0.12  0.24  0.01  0.09  
34          0.71  0.47  0.60  0.39  0.44  0.38  0.13  0.25  0.01  0.09  
35          0.71  0.47  0.60  0.39  0.44  0.38  0.13  0.25  0.01  0.09  
36          0.71  0.47  0.60  0.39  0.44  0.38  0.13  0.25  0.01  0.09  
37          0.71  0.47  0.60  0.39  0.44  0.38  0.13  0.25  0.01  0.09  
38          0.71  0.47  0.60  0.39  0.44  0.38  0.13  0.25  0.01  0.09  
39          0.71  0.47  0.60  0.39  0.44  0.38  0.13  0.25  0.01  0.09  
40          0.71  0.47  0.60  0.39  0.44  0.38  0.13  0.25  0.01  0.09  
41          0.71  0.47  0.60  0.39  0.44  0.38  0.13  0.25  0.01  0.09  
42          0.71  0.47  0.60  0.39  0.44  0.38  0.13  0.25  0.01  0.09  
43          0.71  0.47  0.60  0.39  0.44  0.38  0.13  0.25  0.01  0.09  
44          0.71  0.47  0.60  0.39  0.44  0.38  0.13  0.25  0.01  0.09  
45          0.71  0.47  0.60  0.39  0.44  0.38  0.13  0.25  0.01  0.09  

[*,*,F3 ]:  K1    K2    K3    K4    K5    K6    K7    K8    K9    K10   :=
1           1.00  0.63  0.85  0.59  0.52  0.39  0.06  0.27  0.11  0.14  
2           1.00  0.63  0.85  0.59  0.52  0.39  0.06  0.27  0.11  0.14  
3           1.00  0.63  0.85  0.59  0.52  0.39  0.06  0.27  0.11  0.14  
4           1.00  0.63  0.85  0.59  0.52  0.39  0.06  0.27  0.11  0.14  
5           1.00  0.63  0.85  0.59  0.52  0.39  0.06  0.27  0.11  0.14  
6           1.00  0.63  0.85  0.59  0.52  0.39  0.06  0.27  0.11  0.14  
7           1.00  0.63  0.85  0.59  0.52  0.39  0.06  0.27  0.11  0.14  
8           1.00  0.63  0.85  0.59  0.52  0.39  0.06  0.27  0.11  0.14  
9           1.00  0.63  0.85  0.59  0.52  0.39  0.06  0.27  0.11  0.14  
10          1.00  0.63  0.85  0.59  0.52  0.39  0.06  0.27  0.11  0.14  
11          1.00  0.63  0.85  0.59  0.52  0.39  0.06  0.27  0.11  0.14  
12          1.00  0.63  0.85  0.59  0.52  0.39  0.06  0.27  0.11  0.14  
13          1.00  0.63  0.85  0.59  0.52  0.39  0.06  0.27  0.11  0.14  
14          1.00  0.63  0.85  0.59  0.52  0.39  0.06  0.27  0.11  0.14  
15          1.00  0.63  0.85  0.59  0.52  0.39  0.06  0.27  0.11  0.14  
16          1.00  0.63  0.85  0.59  0.52  0.39  0.06  0.27  0.11  0.14  
17          1.00  0.63  0.85  0.59  0.52  0.39  0.06  0.27  0.11  0.14  
18          1.00  0.63  0.85  0.59  0.52  0.39  0.06  0.27  0.11  0.14  
19          1.00  0.63  0.85  0.59  0.52  0.39  0.06  0.27  0.11  0.14  
20          1.00  0.63  0.85  0.59  0.52  0.39  0.06  0.27  0.11  0.14  
21          1.00  0.63  0.85  0.59  0.52  0.39  0.06  0.27  0.11  0.14  
22          1.00  0.63  0.85  0.59  0.52  0.39  0.06  0.27  0.11  0.14  
23          1.00  0.63  0.85  0.59  0.52  0.39  0.06  0.27  0.11  0.14  
24          1.00  0.63  0.85  0.59  0.52  0.39  0.06  0.27  0.11  0.14  
25          0.95  0.60  0.81  0.56  0.49  0.37  0.05  0.25  0.11  0.14  
26          0.95  0.60  0.81  0.56  0.49  0.37  0.05  0.25  0.11  0.14  
27          0.95  0.60  0.81  0.56  0.49  0.37  0.05  0.25  0.11  0.14  
28          0.95  0.60  0.81  0.56  0.49  0.37  0.05  0.25  0.11  0.14  
29          0.95  0.60  0.81  0.56  0.49  0.37  0.05  0.25  0.11  0.14  
30          0.95  0.60  0.81  0.56  0.49  0.37  0.05  0.25  0.11  0.14  
31          0.95  0.60  0.81  0.56  0.49  0.37  0.05  0.25  0.11  0.14  
32          0.95  0.60  0.81  0.56  0.49  0.37  0.05  0.25  0.11  0.14  
33          0.95  0.60  0.81  0.56  0.49  0.37  0.05  0.25  0.11  0.14  
34          1.00  0.63  0.85  0.59  0.52  0.39  0.06  0.27  0.11  0.14  
35          1.00  0.63  0.85  0.59  0.52  0.39  0.06  0.27  0.11  0.14  
36          1.00  0.63  0.85  0.59  0.52  0.39  0.06  0.27  0.11  0.14  
37          1.00  0.63  0.85  0.59  0.52  0.39  0.06  0.27  0.11  0.14  
38          1.00  0.63  0.85  0.59  0.52  0.39  0.06  0.27  0.11  0.14  
39          1.00  0.63  0.85  0.59  0.52  0.39  0.06  0.27  0.11  0.14  
40          1.00  0.63  0.85  0.59  0.52  0.39  0.06  0.27  0.11  0.14  
41          1.00  0.63  0.85  0.59  0.52  0.39  0.06  0.27  0.11  0.14  
42          1.00  0.63  0.85  0.59  0.52  0.39  0.06  0.27  0.11  0.14  
43          1.00  0.63  0.85  0.59  0.52  0.39  0.06  0.27  0.11  0.14  
44          1.00  0.63  0.85  0.59  0.52  0.39  0.06  0.27  0.11  0.14  
45          1.00  0.63  0.85  0.59  0.52  0.39  0.06  0.27  0.11  0.14  
; # downloads resource k can do at front f in time t if starting or ending flight

param W: 
	F1        F2        F3        :=
1	253.47    253.47    253.47    
2	1013.88   1013.88   1013.88   
3	1013.88   1013.88   1013.88   
4	1013.88   1013.88   1013.88   
5	1013.88   1013.88   1013.88   
6	1013.88   1013.88   1013.88   
7	1013.88   1013.88   1013.88   
8	1013.88   1013.88   1013.88   
9	1013.88   1013.88   1013.88   
10	1013.88   1013.88   1013.88   
11	1013.88   1013.88   1013.88   
12	1013.88   1013.88   1013.88   
13	1013.88   1013.88   1013.88   
14	1013.88   1013.88   1013.88   
15	1013.88   1013.88   1013.88   
16	1013.88   1013.88   1013.88   
17	1013.88   1013.88   1013.88   
18	1013.88   1013.88   1013.88   
19	1013.88   1013.88   1013.88   
20	1013.88   1013.88   1013.88   
21	1013.88   1013.88   1013.88   
22	1013.88   1013.88   1013.88   
23	1013.88   1013.88   1013.88   
24	1013.88   1013.88   1013.88   
25	1013.88   1013.88   1013.88   
26	1013.88   1013.88   1013.88   
27	1013.88   1013.88   1013.88   
28	1013.88   1013.88   1013.88   
29	1013.88   1013.88   1013.88   
30	1013.88   1013.88   1013.88   
31	1013.88   1013.88   1013.88   
32	1013.88   1013.88   1013.88   
33	1013.88   1013.88   1013.88   
34	1013.88   1013.88   1013.88   
35	1013.88   1013.88   1013.88   
36	1013.88   1013.88   1013.88   
37	1013.88   1013.88   1013.88   
38	1013.88   1013.88   1013.88   
39	1013.88   1013.88   1013.88   
40	1013.88   1013.88   1013.88   
41	1013.88   1013.88   1013.88   
42	1013.88   1013.88   1013.88   
43	1013.88   1013.88   1013.88   
44	1013.88   1013.88   1013.88   
45	253.47    253.47    253.47    
; # water needed at front f in time slot t

param M := 100000000; 

param a1:= 10000000;

param a2:= 100;

param a3:= 0.0001;
